100 64584

 139 925
693 442
942 401
542 400
57 727
232 991
658 899
435 789
384 576
560 858
194 804
736 490
648 485
534 757
518 470
716 574
751 938
185 844
872 682
292 445
335 269
732 267
116 54
825 528
49 520
685 616
82 59
834 825
333 40
557 237
335 955
532 386
960 606
221 734
635 716
746 650
733 300
323 395
851 207
3 336
694 593
206 730
832 514
40 178
59 396
951 371
574 858
644 791
507 658
572 318
884 736
843 369
122 384
479 62
619 806
96 505
859 239
414 195
235 678
898 963
62 222
256 61
561 129
905 990
348 685
671 992
124 156
482 917
317 378
504 622
719 781
48 923
409 868
932 903
136 790
201 586
250 999
314 437
869 975
368 207
429 388
830 480
807 791
480 887
314 838
500 984
721 340
355 869
485 340
211 204
704 161
44 540
541 392
571 769
583 677
92 575
265 534
895 70
220 893
902 405
